; Options: -in -smt2
(set-option :produce-unsat-assumptions true)

(declare-fun start!45266 () Bool)

(assert start!45266)

(declare-fun b!218292 () Bool)

(declare-fun e!148334 () Bool)

(declare-datatypes ((array!10630 0))(
  ( (array!10631 (arr!5597 (Array (_ BitVec 32) (_ BitVec 8))) (size!4667 (_ BitVec 32))) )
))
(declare-datatypes ((BitStream!8442 0))(
  ( (BitStream!8443 (buf!5214 array!10630) (currentByte!9813 (_ BitVec 32)) (currentBit!9808 (_ BitVec 32))) )
))
(declare-fun thiss!1204 () BitStream!8442)

(declare-datatypes ((Unit!15531 0))(
  ( (Unit!15532) )
))
(declare-datatypes ((tuple2!18598 0))(
  ( (tuple2!18599 (_1!9957 Unit!15531) (_2!9957 BitStream!8442)) )
))
(declare-fun lt!345958 () tuple2!18598)

(declare-fun invariant!0 ((_ BitVec 32) (_ BitVec 32) (_ BitVec 32)) Bool)

(assert (=> b!218292 (= e!148334 (invariant!0 (currentBit!9808 thiss!1204) (currentByte!9813 thiss!1204) (size!4667 (buf!5214 (_2!9957 lt!345958)))))))

(declare-fun b!218293 () Bool)

(declare-fun e!148342 () Bool)

(declare-datatypes ((tuple2!18600 0))(
  ( (tuple2!18601 (_1!9958 BitStream!8442) (_2!9958 (_ BitVec 64))) )
))
(declare-fun lt!345946 () tuple2!18600)

(declare-datatypes ((tuple2!18602 0))(
  ( (tuple2!18603 (_1!9959 BitStream!8442) (_2!9959 BitStream!8442)) )
))
(declare-fun lt!345969 () tuple2!18602)

(assert (=> b!218293 (= e!148342 (= (_1!9958 lt!345946) (_2!9959 lt!345969)))))

(declare-fun b!218294 () Bool)

(declare-fun res!183752 () Bool)

(declare-fun e!148343 () Bool)

(assert (=> b!218294 (=> res!183752 e!148343)))

(declare-fun lt!345960 () (_ BitVec 64))

(declare-fun nBits!348 () (_ BitVec 32))

(declare-fun lt!345955 () (_ BitVec 64))

(declare-fun i!590 () (_ BitVec 32))

(assert (=> b!218294 (= res!183752 (or (not (= (size!4667 (buf!5214 (_2!9957 lt!345958))) (size!4667 (buf!5214 thiss!1204)))) (not (= lt!345960 (bvsub (bvadd lt!345955 ((_ sign_extend 32) nBits!348)) ((_ sign_extend 32) i!590))))))))

(declare-fun b!218295 () Bool)

(declare-fun res!183749 () Bool)

(declare-fun e!148335 () Bool)

(assert (=> b!218295 (=> res!183749 e!148335)))

(declare-fun bitIndex!0 ((_ BitVec 32) (_ BitVec 32) (_ BitVec 32)) (_ BitVec 64))

(assert (=> b!218295 (= res!183749 (not (= (bitIndex!0 (size!4667 (buf!5214 (_1!9958 lt!345946))) (currentByte!9813 (_1!9958 lt!345946)) (currentBit!9808 (_1!9958 lt!345946))) (bitIndex!0 (size!4667 (buf!5214 (_2!9959 lt!345969))) (currentByte!9813 (_2!9959 lt!345969)) (currentBit!9808 (_2!9959 lt!345969))))))))

(declare-fun b!218296 () Bool)

(declare-fun e!148339 () Bool)

(declare-fun e!148333 () Bool)

(assert (=> b!218296 (= e!148339 (not e!148333))))

(declare-fun res!183748 () Bool)

(assert (=> b!218296 (=> res!183748 e!148333)))

(declare-fun lt!345966 () (_ BitVec 64))

(assert (=> b!218296 (= res!183748 (not (= lt!345966 (bvadd #b0000000000000000000000000000000000000000000000000000000000000001 lt!345955))))))

(declare-fun lt!345947 () tuple2!18598)

(assert (=> b!218296 (= lt!345966 (bitIndex!0 (size!4667 (buf!5214 (_2!9957 lt!345947))) (currentByte!9813 (_2!9957 lt!345947)) (currentBit!9808 (_2!9957 lt!345947))))))

(assert (=> b!218296 (= lt!345955 (bitIndex!0 (size!4667 (buf!5214 thiss!1204)) (currentByte!9813 thiss!1204) (currentBit!9808 thiss!1204)))))

(declare-fun e!148341 () Bool)

(assert (=> b!218296 e!148341))

(declare-fun res!183740 () Bool)

(assert (=> b!218296 (=> (not res!183740) (not e!148341))))

(assert (=> b!218296 (= res!183740 (= (size!4667 (buf!5214 thiss!1204)) (size!4667 (buf!5214 (_2!9957 lt!345947)))))))

(declare-fun lt!345951 () Bool)

(declare-fun appendBit!0 (BitStream!8442 Bool) tuple2!18598)

(assert (=> b!218296 (= lt!345947 (appendBit!0 thiss!1204 lt!345951))))

(declare-fun v!189 () (_ BitVec 64))

(declare-fun lt!345972 () (_ BitVec 64))

(assert (=> b!218296 (= lt!345951 (not (= (bvand v!189 lt!345972) #b0000000000000000000000000000000000000000000000000000000000000000)))))

(assert (=> b!218296 (= lt!345972 (bvshl #b0000000000000000000000000000000000000000000000000000000000000001 ((_ sign_extend 32) i!590)))))

(declare-fun b!218297 () Bool)

(assert (=> b!218297 (= e!148335 true)))

(assert (=> b!218297 e!148342))

(declare-fun res!183738 () Bool)

(assert (=> b!218297 (=> (not res!183738) (not e!148342))))

(assert (=> b!218297 (= res!183738 (= (size!4667 (buf!5214 thiss!1204)) (size!4667 (buf!5214 (_2!9957 lt!345958)))))))

(declare-fun b!218298 () Bool)

(declare-fun res!183755 () Bool)

(assert (=> b!218298 (=> res!183755 e!148343)))

(declare-fun isPrefixOf!0 (BitStream!8442 BitStream!8442) Bool)

(assert (=> b!218298 (= res!183755 (not (isPrefixOf!0 thiss!1204 (_2!9957 lt!345947))))))

(declare-fun b!218299 () Bool)

(declare-fun e!148340 () Bool)

(assert (=> b!218299 (= e!148340 e!148335)))

(declare-fun res!183735 () Bool)

(assert (=> b!218299 (=> res!183735 e!148335)))

(declare-fun lt!345965 () tuple2!18602)

(declare-fun lt!345952 () BitStream!8442)

(assert (=> b!218299 (= res!183735 (not (= (_1!9959 lt!345965) lt!345952)))))

(declare-fun e!148336 () Bool)

(assert (=> b!218299 e!148336))

(declare-fun res!183733 () Bool)

(assert (=> b!218299 (=> (not res!183733) (not e!148336))))

(declare-fun lt!345971 () tuple2!18600)

(assert (=> b!218299 (= res!183733 (and (= (_2!9958 lt!345946) (_2!9958 lt!345971)) (= (_1!9958 lt!345946) (_1!9958 lt!345971))))))

(declare-fun lt!345956 () (_ BitVec 64))

(declare-fun lt!345967 () Unit!15531)

(declare-fun lemmaReadNBitsLSBFirstsLoopIsCorrect!0 (BitStream!8442 (_ BitVec 32) (_ BitVec 32) (_ BitVec 64)) Unit!15531)

(assert (=> b!218299 (= lt!345967 (lemmaReadNBitsLSBFirstsLoopIsCorrect!0 (_1!9959 lt!345969) nBits!348 i!590 lt!345956))))

(declare-fun lt!345963 () (_ BitVec 64))

(declare-fun readNBitsLSBFirstsLoopPure!0 (BitStream!8442 (_ BitVec 32) (_ BitVec 32) (_ BitVec 64)) tuple2!18600)

(assert (=> b!218299 (= lt!345971 (readNBitsLSBFirstsLoopPure!0 lt!345952 nBits!348 (bvadd #b00000000000000000000000000000001 i!590) lt!345963))))

(declare-fun withMovedBitIndex!0 (BitStream!8442 (_ BitVec 64)) BitStream!8442)

(assert (=> b!218299 (= lt!345952 (withMovedBitIndex!0 (_1!9959 lt!345969) #b0000000000000000000000000000000000000000000000000000000000000001))))

(declare-fun b!218300 () Bool)

(declare-fun e!148331 () Bool)

(declare-fun array_inv!4408 (array!10630) Bool)

(assert (=> b!218300 (= e!148331 (array_inv!4408 (buf!5214 thiss!1204)))))

(declare-fun b!218301 () Bool)

(declare-fun res!183745 () Bool)

(assert (=> b!218301 (=> (not res!183745) (not e!148339))))

(assert (=> b!218301 (= res!183745 (not (= i!590 nBits!348)))))

(declare-fun b!218302 () Bool)

(declare-fun res!183751 () Bool)

(assert (=> b!218302 (=> (not res!183751) (not e!148336))))

(assert (=> b!218302 (= res!183751 (= (_1!9959 lt!345969) (withMovedBitIndex!0 (_2!9959 lt!345969) (bvsub lt!345955 lt!345960))))))

(declare-fun b!218303 () Bool)

(assert (=> b!218303 (= e!148343 e!148340)))

(declare-fun res!183744 () Bool)

(assert (=> b!218303 (=> res!183744 e!148340)))

(declare-fun lt!345957 () tuple2!18600)

(assert (=> b!218303 (= res!183744 (not (= (_1!9958 lt!345957) (_2!9959 lt!345965))))))

(assert (=> b!218303 (= lt!345957 (readNBitsLSBFirstsLoopPure!0 (_1!9959 lt!345965) nBits!348 (bvadd #b00000000000000000000000000000001 i!590) lt!345963))))

(declare-fun lt!345970 () (_ BitVec 64))

(declare-fun validate_offset_bits!1 ((_ BitVec 64) (_ BitVec 64) (_ BitVec 64) (_ BitVec 64)) Bool)

(assert (=> b!218303 (validate_offset_bits!1 ((_ sign_extend 32) (size!4667 (buf!5214 (_2!9957 lt!345958)))) ((_ sign_extend 32) (currentByte!9813 (_2!9957 lt!345947))) ((_ sign_extend 32) (currentBit!9808 (_2!9957 lt!345947))) lt!345970)))

(declare-fun lt!345948 () Unit!15531)

(declare-fun validateOffsetBitsContentIrrelevancyLemma!0 (BitStream!8442 array!10630 (_ BitVec 64)) Unit!15531)

(assert (=> b!218303 (= lt!345948 (validateOffsetBitsContentIrrelevancyLemma!0 (_2!9957 lt!345947) (buf!5214 (_2!9957 lt!345958)) lt!345970))))

(assert (=> b!218303 (= lt!345970 ((_ sign_extend 32) (bvsub (bvsub nBits!348 i!590) #b00000000000000000000000000000001)))))

(declare-datatypes ((tuple2!18604 0))(
  ( (tuple2!18605 (_1!9960 BitStream!8442) (_2!9960 Bool)) )
))
(declare-fun lt!345974 () tuple2!18604)

(assert (=> b!218303 (= lt!345963 (bvor lt!345956 (ite (_2!9960 lt!345974) lt!345972 #b0000000000000000000000000000000000000000000000000000000000000000)))))

(assert (=> b!218303 (= lt!345946 (readNBitsLSBFirstsLoopPure!0 (_1!9959 lt!345969) nBits!348 i!590 lt!345956))))

(declare-fun lt!345973 () (_ BitVec 64))

(assert (=> b!218303 (validate_offset_bits!1 ((_ sign_extend 32) (size!4667 (buf!5214 (_2!9957 lt!345958)))) ((_ sign_extend 32) (currentByte!9813 thiss!1204)) ((_ sign_extend 32) (currentBit!9808 thiss!1204)) lt!345973)))

(declare-fun lt!345950 () Unit!15531)

(assert (=> b!218303 (= lt!345950 (validateOffsetBitsContentIrrelevancyLemma!0 thiss!1204 (buf!5214 (_2!9957 lt!345958)) lt!345973))))

(declare-fun onesLSBLong!0 ((_ BitVec 32)) (_ BitVec 64))

(assert (=> b!218303 (= lt!345956 (bvand v!189 (onesLSBLong!0 i!590)))))

(assert (=> b!218303 (= (_2!9960 lt!345974) lt!345951)))

(declare-fun readBitPure!0 (BitStream!8442) tuple2!18604)

(assert (=> b!218303 (= lt!345974 (readBitPure!0 (_1!9959 lt!345969)))))

(declare-fun reader!0 (BitStream!8442 BitStream!8442) tuple2!18602)

(assert (=> b!218303 (= lt!345965 (reader!0 (_2!9957 lt!345947) (_2!9957 lt!345958)))))

(assert (=> b!218303 (= lt!345969 (reader!0 thiss!1204 (_2!9957 lt!345958)))))

(declare-fun e!148332 () Bool)

(assert (=> b!218303 e!148332))

(declare-fun res!183734 () Bool)

(assert (=> b!218303 (=> (not res!183734) (not e!148332))))

(declare-fun lt!345961 () tuple2!18604)

(declare-fun lt!345954 () tuple2!18604)

(assert (=> b!218303 (= res!183734 (= (bitIndex!0 (size!4667 (buf!5214 (_1!9960 lt!345961))) (currentByte!9813 (_1!9960 lt!345961)) (currentBit!9808 (_1!9960 lt!345961))) (bitIndex!0 (size!4667 (buf!5214 (_1!9960 lt!345954))) (currentByte!9813 (_1!9960 lt!345954)) (currentBit!9808 (_1!9960 lt!345954)))))))

(declare-fun lt!345962 () Unit!15531)

(declare-fun lt!345964 () BitStream!8442)

(declare-fun readBitPrefixLemma!0 (BitStream!8442 BitStream!8442) Unit!15531)

(assert (=> b!218303 (= lt!345962 (readBitPrefixLemma!0 lt!345964 (_2!9957 lt!345958)))))

(assert (=> b!218303 (= lt!345954 (readBitPure!0 (BitStream!8443 (buf!5214 (_2!9957 lt!345958)) (currentByte!9813 thiss!1204) (currentBit!9808 thiss!1204))))))

(assert (=> b!218303 (= lt!345961 (readBitPure!0 lt!345964))))

(assert (=> b!218303 e!148334))

(declare-fun res!183750 () Bool)

(assert (=> b!218303 (=> (not res!183750) (not e!148334))))

(assert (=> b!218303 (= res!183750 (invariant!0 (currentBit!9808 thiss!1204) (currentByte!9813 thiss!1204) (size!4667 (buf!5214 (_2!9957 lt!345947)))))))

(assert (=> b!218303 (= lt!345964 (BitStream!8443 (buf!5214 (_2!9957 lt!345947)) (currentByte!9813 thiss!1204) (currentBit!9808 thiss!1204)))))

(declare-fun b!218304 () Bool)

(assert (=> b!218304 (= e!148333 e!148343)))

(declare-fun res!183746 () Bool)

(assert (=> b!218304 (=> res!183746 e!148343)))

(assert (=> b!218304 (= res!183746 (not (= lt!345960 (bvsub (bvsub (bvadd lt!345966 ((_ sign_extend 32) nBits!348)) ((_ sign_extend 32) i!590)) #b0000000000000000000000000000000000000000000000000000000000000001))))))

(assert (=> b!218304 (= lt!345960 (bitIndex!0 (size!4667 (buf!5214 (_2!9957 lt!345958))) (currentByte!9813 (_2!9957 lt!345958)) (currentBit!9808 (_2!9957 lt!345958))))))

(assert (=> b!218304 (isPrefixOf!0 thiss!1204 (_2!9957 lt!345958))))

(declare-fun lt!345959 () Unit!15531)

(declare-fun lemmaIsPrefixTransitive!0 (BitStream!8442 BitStream!8442 BitStream!8442) Unit!15531)

(assert (=> b!218304 (= lt!345959 (lemmaIsPrefixTransitive!0 thiss!1204 (_2!9957 lt!345947) (_2!9957 lt!345958)))))

(declare-fun appendBitsLSBFirstLoopTR!0 (BitStream!8442 (_ BitVec 64) (_ BitVec 32) (_ BitVec 32)) tuple2!18598)

(assert (=> b!218304 (= lt!345958 (appendBitsLSBFirstLoopTR!0 (_2!9957 lt!345947) v!189 nBits!348 (bvadd #b00000000000000000000000000000001 i!590)))))

(declare-fun b!218306 () Bool)

(declare-fun res!183747 () Bool)

(assert (=> b!218306 (=> (not res!183747) (not e!148342))))

(assert (=> b!218306 (= res!183747 (= (_2!9958 lt!345946) (bvand v!189 (onesLSBLong!0 nBits!348))))))

(declare-fun b!218307 () Bool)

(declare-fun res!183739 () Bool)

(assert (=> b!218307 (=> res!183739 e!148343)))

(assert (=> b!218307 (= res!183739 (not (invariant!0 (currentBit!9808 (_2!9957 lt!345958)) (currentByte!9813 (_2!9957 lt!345958)) (size!4667 (buf!5214 (_2!9957 lt!345958))))))))

(declare-fun b!218308 () Bool)

(assert (=> b!218308 (= e!148332 (= (_2!9960 lt!345961) (_2!9960 lt!345954)))))

(declare-fun b!218309 () Bool)

(declare-fun res!183743 () Bool)

(declare-fun e!148344 () Bool)

(assert (=> b!218309 (=> (not res!183743) (not e!148344))))

(assert (=> b!218309 (= res!183743 (isPrefixOf!0 thiss!1204 (_2!9957 lt!345947)))))

(declare-fun b!218310 () Bool)

(declare-fun e!148337 () Bool)

(assert (=> b!218310 (= e!148344 e!148337)))

(declare-fun res!183754 () Bool)

(assert (=> b!218310 (=> (not res!183754) (not e!148337))))

(declare-fun lt!345968 () tuple2!18604)

(assert (=> b!218310 (= res!183754 (and (= (_2!9960 lt!345968) lt!345951) (= (_1!9960 lt!345968) (_2!9957 lt!345947))))))

(declare-fun readerFrom!0 (BitStream!8442 (_ BitVec 32) (_ BitVec 32)) BitStream!8442)

(assert (=> b!218310 (= lt!345968 (readBitPure!0 (readerFrom!0 (_2!9957 lt!345947) (currentBit!9808 thiss!1204) (currentByte!9813 thiss!1204))))))

(declare-fun b!218311 () Bool)

(assert (=> b!218311 (= e!148341 e!148344)))

(declare-fun res!183736 () Bool)

(assert (=> b!218311 (=> (not res!183736) (not e!148344))))

(declare-fun lt!345953 () (_ BitVec 64))

(declare-fun lt!345949 () (_ BitVec 64))

(assert (=> b!218311 (= res!183736 (= lt!345953 (bvadd #b0000000000000000000000000000000000000000000000000000000000000001 lt!345949)))))

(assert (=> b!218311 (= lt!345953 (bitIndex!0 (size!4667 (buf!5214 (_2!9957 lt!345947))) (currentByte!9813 (_2!9957 lt!345947)) (currentBit!9808 (_2!9957 lt!345947))))))

(assert (=> b!218311 (= lt!345949 (bitIndex!0 (size!4667 (buf!5214 thiss!1204)) (currentByte!9813 thiss!1204) (currentBit!9808 thiss!1204)))))

(declare-fun b!218312 () Bool)

(declare-fun res!183753 () Bool)

(assert (=> b!218312 (=> res!183753 e!148343)))

(assert (=> b!218312 (= res!183753 (not (isPrefixOf!0 (_2!9957 lt!345947) (_2!9957 lt!345958))))))

(declare-fun b!218313 () Bool)

(assert (=> b!218313 (= e!148337 (= (bitIndex!0 (size!4667 (buf!5214 (_1!9960 lt!345968))) (currentByte!9813 (_1!9960 lt!345968)) (currentBit!9808 (_1!9960 lt!345968))) lt!345953))))

(declare-fun b!218314 () Bool)

(assert (=> b!218314 (= e!148336 (and (= lt!345955 (bvsub lt!345966 #b0000000000000000000000000000000000000000000000000000000000000001)) (or (not (= (_1!9959 lt!345965) lt!345952)) (= (_2!9958 lt!345946) (_2!9958 lt!345957)))))))

(declare-fun b!218315 () Bool)

(declare-fun res!183741 () Bool)

(assert (=> b!218315 (=> (not res!183741) (not e!148339))))

(assert (=> b!218315 (= res!183741 (invariant!0 (currentBit!9808 thiss!1204) (currentByte!9813 thiss!1204) (size!4667 (buf!5214 thiss!1204))))))

(declare-fun b!218316 () Bool)

(declare-fun res!183737 () Bool)

(assert (=> b!218316 (=> (not res!183737) (not e!148336))))

(assert (=> b!218316 (= res!183737 (= (_1!9959 lt!345965) (withMovedBitIndex!0 (_2!9959 lt!345965) (bvsub lt!345966 lt!345960))))))

(declare-fun b!218305 () Bool)

(declare-fun e!148338 () Bool)

(assert (=> b!218305 (= e!148338 e!148339)))

(declare-fun res!183732 () Bool)

(assert (=> b!218305 (=> (not res!183732) (not e!148339))))

(assert (=> b!218305 (= res!183732 (validate_offset_bits!1 ((_ sign_extend 32) (size!4667 (buf!5214 thiss!1204))) ((_ sign_extend 32) (currentByte!9813 thiss!1204)) ((_ sign_extend 32) (currentBit!9808 thiss!1204)) lt!345973))))

(assert (=> b!218305 (= lt!345973 ((_ sign_extend 32) (bvsub nBits!348 i!590)))))

(declare-fun res!183742 () Bool)

(assert (=> start!45266 (=> (not res!183742) (not e!148338))))

(assert (=> start!45266 (= res!183742 (and (bvsge nBits!348 #b00000000000000000000000000000000) (bvsle nBits!348 #b00000000000000000000000001000000) (bvsle #b00000000000000000000000000000000 i!590) (bvsle i!590 nBits!348)))))

(assert (=> start!45266 e!148338))

(assert (=> start!45266 true))

(declare-fun inv!12 (BitStream!8442) Bool)

(assert (=> start!45266 (and (inv!12 thiss!1204) e!148331)))

(assert (= (and start!45266 res!183742) b!218305))

(assert (= (and b!218305 res!183732) b!218315))

(assert (= (and b!218315 res!183741) b!218301))

(assert (= (and b!218301 res!183745) b!218296))

(assert (= (and b!218296 res!183740) b!218311))

(assert (= (and b!218311 res!183736) b!218309))

(assert (= (and b!218309 res!183743) b!218310))

(assert (= (and b!218310 res!183754) b!218313))

(assert (= (and b!218296 (not res!183748)) b!218304))

(assert (= (and b!218304 (not res!183746)) b!218307))

(assert (= (and b!218307 (not res!183739)) b!218294))

(assert (= (and b!218294 (not res!183752)) b!218312))

(assert (= (and b!218312 (not res!183753)) b!218298))

(assert (= (and b!218298 (not res!183755)) b!218303))

(assert (= (and b!218303 res!183750) b!218292))

(assert (= (and b!218303 res!183734) b!218308))

(assert (= (and b!218303 (not res!183744)) b!218299))

(assert (= (and b!218299 res!183733) b!218302))

(assert (= (and b!218302 res!183751) b!218316))

(assert (= (and b!218316 res!183737) b!218314))

(assert (= (and b!218299 (not res!183735)) b!218295))

(assert (= (and b!218295 (not res!183749)) b!218297))

(assert (= (and b!218297 res!183738) b!218306))

(assert (= (and b!218306 res!183747) b!218293))

(assert (= start!45266 b!218300))

(declare-fun m!336771 () Bool)

(assert (=> b!218316 m!336771))

(declare-fun m!336773 () Bool)

(assert (=> b!218312 m!336773))

(declare-fun m!336775 () Bool)

(assert (=> b!218311 m!336775))

(declare-fun m!336777 () Bool)

(assert (=> b!218311 m!336777))

(declare-fun m!336779 () Bool)

(assert (=> b!218303 m!336779))

(declare-fun m!336781 () Bool)

(assert (=> b!218303 m!336781))

(declare-fun m!336783 () Bool)

(assert (=> b!218303 m!336783))

(declare-fun m!336785 () Bool)

(assert (=> b!218303 m!336785))

(declare-fun m!336787 () Bool)

(assert (=> b!218303 m!336787))

(declare-fun m!336789 () Bool)

(assert (=> b!218303 m!336789))

(declare-fun m!336791 () Bool)

(assert (=> b!218303 m!336791))

(declare-fun m!336793 () Bool)

(assert (=> b!218303 m!336793))

(declare-fun m!336795 () Bool)

(assert (=> b!218303 m!336795))

(declare-fun m!336797 () Bool)

(assert (=> b!218303 m!336797))

(declare-fun m!336799 () Bool)

(assert (=> b!218303 m!336799))

(declare-fun m!336801 () Bool)

(assert (=> b!218303 m!336801))

(declare-fun m!336803 () Bool)

(assert (=> b!218303 m!336803))

(declare-fun m!336805 () Bool)

(assert (=> b!218303 m!336805))

(declare-fun m!336807 () Bool)

(assert (=> b!218303 m!336807))

(declare-fun m!336809 () Bool)

(assert (=> b!218303 m!336809))

(declare-fun m!336811 () Bool)

(assert (=> b!218300 m!336811))

(declare-fun m!336813 () Bool)

(assert (=> b!218313 m!336813))

(declare-fun m!336815 () Bool)

(assert (=> b!218315 m!336815))

(declare-fun m!336817 () Bool)

(assert (=> b!218299 m!336817))

(declare-fun m!336819 () Bool)

(assert (=> b!218299 m!336819))

(declare-fun m!336821 () Bool)

(assert (=> b!218299 m!336821))

(declare-fun m!336823 () Bool)

(assert (=> b!218309 m!336823))

(declare-fun m!336825 () Bool)

(assert (=> b!218302 m!336825))

(assert (=> b!218298 m!336823))

(declare-fun m!336827 () Bool)

(assert (=> b!218310 m!336827))

(assert (=> b!218310 m!336827))

(declare-fun m!336829 () Bool)

(assert (=> b!218310 m!336829))

(declare-fun m!336831 () Bool)

(assert (=> b!218307 m!336831))

(declare-fun m!336833 () Bool)

(assert (=> b!218292 m!336833))

(declare-fun m!336835 () Bool)

(assert (=> b!218295 m!336835))

(declare-fun m!336837 () Bool)

(assert (=> b!218295 m!336837))

(assert (=> b!218296 m!336775))

(assert (=> b!218296 m!336777))

(declare-fun m!336839 () Bool)

(assert (=> b!218296 m!336839))

(declare-fun m!336841 () Bool)

(assert (=> b!218304 m!336841))

(declare-fun m!336843 () Bool)

(assert (=> b!218304 m!336843))

(declare-fun m!336845 () Bool)

(assert (=> b!218304 m!336845))

(declare-fun m!336847 () Bool)

(assert (=> b!218304 m!336847))

(declare-fun m!336849 () Bool)

(assert (=> start!45266 m!336849))

(declare-fun m!336851 () Bool)

(assert (=> b!218306 m!336851))

(declare-fun m!336853 () Bool)

(assert (=> b!218305 m!336853))

(check-sat (not b!218305) (not start!45266) (not b!218316) (not b!218311) (not b!218295) (not b!218306) (not b!218300) (not b!218296) (not b!218313) (not b!218309) (not b!218315) (not b!218303) (not b!218299) (not b!218310) (not b!218304) (not b!218302) (not b!218298) (not b!218307) (not b!218292) (not b!218312))
